\ Netlib AFIRO LP
\ Classic standard LP benchmark
Minimize
 obj: -0.4 X01 + 10 X02 -0.32 X03 + 10 X04 -0.6 X06 + 10 X07 -0.48 X08 + 10 X09 + 10 X14 -10 X16 -0.43 X22 + 10 X23 -0.43 X24 + 10 X25 -0.6 X27 + 10 X28 -0.48 X29 + 10 X30 + 10 X35 -10 X37 -0.43 X43 + 10 X44 -0.43 X45 + 10 X46 -0.6 X48 + 10 X49 -0.48 X50 + 10 X51

Subject To
 R01: X01 - X02 = 0
 R02: X03 - X04 = 0
 R03: X06 - X07 = 0
 R04: X08 - X09 = 0
 R07: 2.364 X01 + 2.386 X03 + 2.408 X06 + 2.429 X08 + X14 = 80
 R08: -X01 - X03 - X06 - X08 + X16 = 0
 R09: X22 - X23 = 0
 R10: X24 - X25 = 0
 R11: X27 - X28 = 0
 R12: X29 - X30 = 0
 R15: 2.364 X22 + 2.386 X24 + 2.408 X27 + 2.429 X29 + X35 = 80
 R16: -X22 - X24 - X27 - X29 + X37 = 0
 R17: X43 - X44 = 0
 R18: X45 - X46 = 0
 R19: X48 - X49 = 0
 R20: X50 - X51 = 0
 R23: 2.364 X43 + 2.386 X45 + 2.408 X48 + 2.429 X50 <= 80

Bounds
 X01 >= 0
 X02 >= 0
 X03 >= 0
 X04 >= 0
 X06 >= 0
 X07 >= 0
 X08 >= 0
 X09 >= 0
 X14 >= 0
 X16 >= 0
 X22 >= 0
 X23 >= 0
 X24 >= 0
 X25 >= 0
 X27 >= 0
 X28 >= 0
 X29 >= 0
 X30 >= 0
 X35 >= 0
 X37 >= 0
 X43 >= 0
 X44 >= 0
 X45 >= 0
 X46 >= 0
 X48 >= 0
 X49 >= 0
 X50 >= 0
 X51 >= 0

End
